1750
11 63 8 64 74 4 44 98 42 29 37 53 68 91 1 7 52 46 47 94 71 66 77 25 40 50 70 48 5 14 36 58 30 82 16 20 51 49 93 35 86 39 99 78 32 73 80 84 75 33 22 10 83 12 38 26 76 88 2 79 67 41 19 3 61 81 85 96 15 89 34 28 62 72 43 69 17 13 27 65 6 57 21 87 45 59 54 90 23 60 9 97 55 56 92 18 31 95 24 
